1 1 -2 0
1 -1 3 0
1 1 4 0
1 1 5 0
1 2 -3 0
1 -2 4 0
1 6 -7 0
1 -6 8 0
1 -6 9 0
1 6 3 0
1 -6 -4 0
1 -6 -10 0
1 6 -11 0
1 6 5 0
1 9 8 0
1 -9 -3 0
1 9 4 0
1 9 12 0
1 9 6 0
1 -9 -11 0
1 -4 -13 0
1 -4 14 0
1 -4 -2 0
1 4 15 0
1 4 16 0
1 4 -6 0
1 -4 1 0
1 -5 -17 0
1 5 -14 0
1 -5 4 0
1 -5 6 0
1 3 -13 0
1 -3 -18 0
1 -3 19 0
1 3 -20 0
1 3 -21 0
1 3 6 0
1 -3 1 0
1 -3 11 0
1 11 13 0
1 11 -18 0
1 11 -22 0
1 11 9 0
1 -11 -2 0
1 11 3 0
1 11 15 0
1 11 -20 0
1 -11 21 0
1 -11 1 0
1 -16 -7 0
1 16 -8 0
1 16 -23 0
1 16 10 0
1 16 21 0
1 -23 -8 0
1 -23 -22 0
1 23 12 0
1 23 10 0
1 -23 -16 0
1 24 -25 0
1 24 26 0
1 -24 4 0
1 24 -12 0
1 -24 10 0
1 24 -20 0
1 -24 -5 0
1 14 -7 0
1 14 -18 0
1 -14 26 0
1 14 -4 0
1 14 -12 0
1 14 -10 0
1 -14 27 0
1 14 28 0
1 14 -5 0
1 -10 29 0
1 -10 -8 0
1 -10 -9 0
1 -10 -30 0
1 10 -31 0
1 10 16 0
1 10 -6 0
1 10 -32 0
1 8 29 0
1 -8 14 0
1 8 23 0
1 -8 -9 0
1 8 30 0
1 -8 -31 0
1 -8 -33 0
1 -8 24 0
1 8 16 0
1 8 -6 0
1 -8 32 0
1 12 7 0
1 -12 13 0
1 -12 -30 0
1 -12 -34 0
1 12 -24 0
1 -12 -16 0
1 -12 -32 0
1 -7 -13 0
1 -7 14 0
1 -7 -23 0
1 7 -30 0
1 -7 -12 0
1 7 24 0
1 7 16 0
1 33 35 0
1 -33 -10 0
1 -33 -15 0
1 33 27 0
1 33 28 0
1 35 -33 0
1 -35 10 0
1 35 27 0
1 35 -28 0
1 -31 29 0
1 31 25 0
1 31 -26 0
1 31 34 0
1 -29 -36 0
1 29 -25 0
1 29 -26 0
1 29 -10 0
1 29 -28 0
1 -28 -29 0
1 28 -35 0
1 28 -26 0
1 28 31 0
1 28 33 0
1 28 -24 0
1 -26 29 0
1 26 -31 0
1 26 -33 0
1 26 -28 0
1 -27 35 0
1 27 14 0
1 -27 30 0
1 -27 -31 0
1 -27 -37 0
1 27 32 0
1 -25 -29 0
1 -25 14 0
1 -25 -38 0
1 25 -31 0
1 25 -33 0
1 25 24 0
1 21 39 0
1 -21 22 0
1 21 40 0
1 -21 -3 0
1 21 41 0
1 -21 42 0
1 -21 16 0
1 -21 11 0
1 -22 -39 0
1 22 -40 0
1 -22 3 0
1 -22 21 0
1 20 40 0
1 -20 -41 0
1 -20 -24 0
1 20 -42 0
1 -20 43 0
1 20 -44 0
1 20 11 0
1 -18 -42 0
1 -18 -14 0
1 -18 -39 0
1 -18 -40 0
1 18 -45 0
1 -18 3 0
1 18 -41 0
1 -40 -42 0
1 -40 -13 0
1 40 18 0
1 -40 22 0
1 40 -34 0
1 42 36 0
1 -42 -13 0
1 42 -40 0
1 -42 -15 0
1 42 -20 0
1 39 -18 0
1 39 22 0
1 -39 -41 0
1 41 -22 0
1 15 7 0
1 -15 46 0
1 -15 3 0
1 -15 33 0
1 15 -42 0
1 -15 -44 0
1 15 -11 0
1 -13 35 0
1 -13 45 0
1 13 -15 0
1 -13 -43 0
1 13 -44 0
1 -13 -11 0
1 -34 7 0
1 34 -36 0
1 -34 -40 0
1 -34 45 0
1 -34 -19 0
1 -34 -31 0
1 -34 43 0
1 34 -44 0
1 36 -17 0
1 36 -29 0
1 36 40 0
1 36 -19 0
1 -36 47 0
1 -36 -34 0
1 -36 43 0
1 36 -44 0
1 -36 48 0
1 -45 -18 0
1 -45 -38 0
1 -45 44 0
1 44 36 0
1 -44 -13 0
1 44 -18 0
1 -44 20 0
1 -44 -37 0
1 -44 -32 0
1 46 -36 0
1 46 -34 0
1 46 43 0
1 -43 36 0
1 43 -18 0
1 -43 15 0
1 30 -7 0
1 30 -25 0
1 -30 -19 0
1 30 47 0
1 -32 7 0
1 -32 17 0
1 32 -8 0
1 -32 -19 0
1 32 -30 0
1 -32 47 0
1 32 12 0
1 32 10 0
1 32 27 0
1 32 44 0
1 -32 -48 0
1 -38 17 0
1 38 -45 0
1 -38 19 0
1 -38 27 0
1 -38 -37 0
1 -37 17 0
1 37 -25 0
1 37 -45 0
1 37 27 0
1 -37 -48 0
1 -47 36 0
1 47 30 0
1 -47 -4 0
1 47 -34 0
1 47 -37 0
1 -17 38 0
1 -17 30 0
1 17 47 0
1 17 -34 0
1 -17 -5 0
1 -17 37 0
1 -17 32 0
1 19 -36 0
1 19 38 0
1 -19 -3 0
1 -19 -48 0
1 -48 -36 0
1 -48 -19 0
1 48 -11 0
1 -48 37 0
1 48 32 0
